15	3	2
1374	1374	1374	
322	198	208	
10	392	407	
267	18	18	
652	299	300	
522	492	525	
718	320	342	
504	27	28	
846	386	413	
924	39	41	
54	30	30	
67	553	558	
631	518	539	
298	872	922	
948	809	878	
376	543	558	
